50 10453

107
416
469
325
134
132
126
94
419
330
40
300
229
434
281
371
128
56
191
119
373
386
483
479
35
316
338
494
384
441
450
304
334
204
393
324
258
155
309
345
84
24
70
110
249
282
418
46
246
32
